0 1
0 2
0 3
0 4
0 5
0 6
0 9
0 10
0 12
0 13
0 14
0 16
0 18
0 19
0 20
0 21
0 27
0 30
0 33
0 36
0 37
0 43
0 44
0 47
0 48
0 52
0 54
0 55
0 56
0 58
0 59
0 60
0 68
0 69
0 70
0 71
0 72
0 76
0 81
0 83
0 85
0 87
0 93
0 96
0 98
0 99
0 106
0 108
0 110
0 118
0 119
0 124
0 126
0 128
0 133
0 151
0 152
0 155
0 157
0 161
0 162
0 168
0 179
0 188
0 190
0 194
0 204
0 230
0 234
0 242
0 259
0 260
0 263
0 269
0 271
0 276
0 277
0 278
0 285
0 289
0 295
0 296
0 297
0 304
0 319
0 320
0 321
0 329
0 354
0 355
0 363
0 406
0 407
0 408
0 409
0 410
0 411
0 419
0 426
0 429
0 435
0 439
0 442
0 496
0 497
0 498
0 499
0 500
0 501
0 502
0 503
0 504
0 515
0 751
0 752
0 753
0 754
0 755
0 756
0 757
0 758
0 759
0 760
0 761
0 762
0 763
0 764
0 765
0 766
0 767
0 768
0 769
0 770
0 771
0 813
0 815
0 837
0 846
0 849
0 982
0 983
0 984
1 2
1 3
1 4
1 5
1 6
1 7
1 8
1 9
1 10
1 12
1 14
1 16
1 17
1 18
1 19
1 20
1 25
1 27
1 31
1 33
1 34
1 38
1 43
1 44
1 47
1 48
1 52
1 55
1 56
1 69
1 70
1 71
1 78
1 81
1 85
1 87
1 96
1 98
1 101
1 108
1 110
1 118
1 119
1 121
1 126
1 128
1 131
1 151
1 157
1 168
1 173
1 175
1 179
1 230
1 234
1 237
1 242
1 260
1 271
1 277
1 282
1 296
1 297
1 309
1 347
1 354
1 362
1 387
1 411
1 424
1 425
1 442
1 451
1 484
1 497
1 498
1 515
1 542
1 543
1 569
1 573
1 599
1 617
1 641
1 646
1 647
1 681
1 687
1 717
1 753
1 755
1 756
1 761
1 763
1 768
1 771
1 847
1 886
1 941
2 3
2 4
2 5
2 6
2 7
2 8
2 10
2 11
2 12
2 14
2 15
2 16
2 17
2 18
2 20
2 21
2 23
2 24
2 26
2 29
2 31
2 32
2 33
2 36
2 39
2 40
2 41
2 42
2 43
2 47
2 49
2 51
2 52
2 55
2 56
2 57
2 62
2 63
2 64
2 66
2 67
2 68
2 70
2 72
2 75
2 77
2 81
2 86
2 88
2 104
2 105
2 107
2 108
2 111
2 113
2 118
2 119
2 121
2 126
2 130
2 132
2 140
2 142
2 145
2 148
2 149
2 153
2 154
2 163
2 164
2 168
2 180
2 184
2 186
2 193
2 196
2 198
2 201
2 204
2 214
2 215
2 216
2 218
2 220
2 223
2 224
2 232
2 238
2 240
2 241
2 242
2 249
2 274
2 275
2 280
2 284
2 293
2 299
2 312
2 318
2 323
2 324
2 326
2 327
2 331
2 339
2 349
2 353
2 357
2 364
2 366
2 372
2 373
2 396
2 397
2 399
2 401
2 411
2 412
2 414
2 428
2 430
2 434
2 446
2 447
2 479
2 488
2 506
2 571
2 572
2 573
2 574
2 612
2 618
2 658
2 660
2 689
2 692
2 703
2 752
2 770
2 831
2 901
2 906
2 916
2 930
3 4
3 5
3 6
3 7
3 9
3 10
3 12
3 13
3 14
3 16
3 17
3 18
3 19
3 20
3 21
3 23
3 27
3 28
3 29
3 33
3 34
3 37
3 38
3 41
3 42
3 43
3 45
3 47
3 48
3 49
3 52
3 55
3 58
3 59
3 62
3 63
3 64
3 67
3 69
3 71
3 72
3 75
3 81
3 83
3 85
3 87
3 93
3 96
3 97
3 98
3 99
3 100
3 106
3 107
3 108
3 111
3 112
3 119
3 121
3 124
3 128
3 130
3 131
3 133
3 145
3 146
3 151
3 153
3 154
3 157
3 170
3 177
3 179
3 180
3 187
3 189
3 190
3 202
3 207
3 218
3 225
3 234
3 236
3 250
3 252
3 256
3 260
3 272
3 284
3 289
3 296
3 297
3 309
3 343
3 358
3 362
3 363
3 391
3 393
3 404
3 409
3 434
3 469
3 478
3 548
3 549
3 569
3 590
3 606
3 617
3 647
3 696
3 700
3 750
3 754
3 766
3 813
3 815
3 836
3 893
3 896
3 971
4 5
4 6
4 8
4 9
4 10
4 11
4 12
4 13
4 14
4 16
4 17
4 18
4 19
4 20
4 21
4 22
4 23
4 25
4 29
4 33
4 34
4 35
4 38
4 39
4 40
4 41
4 43
4 44
4 45
4 47
4 48
4 51
4 52
4 53
4 55
4 57
4 58
4 60
4 63
4 64
4 67
4 68
4 69
4 70
4 71
4 72
4 75
4 76
4 77
4 79
4 83
4 84
4 85
4 86
4 87
4 89
4 91
4 93
4 96
4 98
4 99
4 101
4 104
4 105
4 107
4 108
4 109
4 112
4 114
4 119
4 121
4 126
4 130
4 131
4 132
4 142
4 143
4 144
4 148
4 149
4 157
4 158
4 162
4 163
4 173
4 175
4 182
4 185
4 186
4 189
4 190
4 194
4 196
4 202
4 209
4 217
4 218
4 224
4 225
4 229
4 231
4 232
4 237
4 241
4 244
4 251
4 256
4 257
4 259
4 262
4 263
4 267
4 268
4 269
4 271
4 275
4 278
4 283
4 291
4 294
4 295
4 296
4 305
4 314
4 315
4 316
4 319
4 323
4 346
4 347
4 348
4 349
4 357
4 398
4 399
4 400
4 401
4 410
4 417
4 427
4 432
4 435
4 437
4 482
4 483
4 484
4 485
4 486
4 487
4 488
4 492
4 494
4 498
4 499
4 525
4 700
4 701
4 702
4 703
4 704
4 705
4 706
4 707
4 708
4 709
4 710
4 711
4 764
4 822
4 966
4 967
4 968
5 6
5 8
5 9
5 10
5 12
5 14
5 16
5 18
5 19
5 20
5 21
5 24
5 25
5 29
5 33
5 38
5 41
5 43
5 45
5 47
5 49
5 52
5 55
5 60
5 62
5 63
5 69
5 81
5 89
5 103
5 118
5 123
5 131
5 152
5 167
5 168
5 169
5 179
5 211
5 214
5 232
5 234
5 237
5 242
5 269
5 275
5 282
5 309
5 315
5 341
5 347
5 354
5 379
5 406
5 479
5 485
5 486
5 495
5 500
5 526
5 607
5 608
5 609
5 610
5 648
5 717
5 745
5 769
6 8
6 9
6 10
6 11
6 12
6 13
6 14
6 15
6 16
6 17
6 18
6 19
6 20
6 21
6 24
6 25
6 29
6 30
6 32
6 33
6 34
6 36
6 38
6 41
6 42
6 43
6 46
6 47
6 48
6 52
6 55
6 56
6 57
6 59
6 60
6 62
6 63
6 64
6 66
6 67
6 69
6 70
6 74
6 77
6 78
6 80
6 81
6 82
6 83
6 85
6 87
6 89
6 92
6 93
6 96
6 97
6 101
6 105
6 106
6 110
6 126
6 128
6 133
6 144
6 146
6 150
6 152
6 153
6 157
6 158
6 164
6 165
6 167
6 171
6 176
6 177
6 188
6 189
6 190
6 191
6 196
6 203
6 204
6 207
6 208
6 216
6 218
6 225
6 231
6 232
6 233
6 234
6 239
6 249
6 250
6 251
6 252
6 267
6 283
6 284
6 301
6 302
6 303
6 304
6 305
6 328
6 361
6 362
6 363
6 364
6 365
6 432
6 433
6 434
6 435
6 436
6 437
6 524
6 525
6 830
6 831
6 832
6 833
6 834
6 835
6 836
6 837
6 838
6 991
6 998
7 8
7 9
7 10
7 11
7 12
7 14
7 15
7 16
7 20
7 21
7 23
7 25
7 26
7 27
7 28
7 29
7 31
7 33
7 34
7 40
7 41
7 44
7 45
7 47
7 49
7 52
7 55
7 57
7 62
7 63
7 64
7 66
7 69
7 81
7 88
7 126
7 169
7 182
7 193
7 204
7 230
7 244
7 282
7 302
7 318
7 322
7 347
7 352
7 354
7 392
7 393
7 406
7 436
7 478
7 479
7 480
7 485
7 530
7 681
7 682
7 683
7 684
7 685
7 686
7 687
7 688
7 741
7 747
7 767
7 854
7 956
7 957
7 958
7 959
7 960
8 10
8 11
8 14
8 15
8 16
8 18
8 19
8 20
8 21
8 23
8 26
8 27
8 29
8 30
8 33
8 34
8 38
8 39
8 41
8 42
8 43
8 45
8 47
8 49
8 52
8 53
8 55
8 57
8 60
8 62
8 63
8 64
8 66
8 69
8 71
8 81
8 88
8 91
8 121
8 157
8 435
8 472
8 608
8 609
8 645
8 682
8 696
8 710
8 711
8 832
8 853
8 861
8 870
8 892
8 899
8 931
9 10
9 11
9 12
9 13
9 14
9 15
9 16
9 17
9 18
9 19
9 20
9 21
9 24
9 26
9 28
9 29
9 31
9 33
9 34
9 36
9 39
9 40
9 41
9 43
9 47
9 49
9 52
9 53
9 55
9 66
9 69
9 71
9 73
9 80
9 88
9 89
9 107
9 129
9 140
9 152
9 157
9 165
9 176
9 185
9 194
9 215
9 220
9 231
9 239
9 240
9 245
9 256
9 269
9 275
9 299
9 312
9 318
9 335
9 352
9 373
9 403
9 427
9 432
9 446
9 458
9 483
9 705
9 709
9 715
9 740
9 757
9 830
9 852
10 12
10 14
10 16
10 17
10 18
10 20
10 21
10 29
10 30
10 33
10 36
10 39
10 41
10 43
10 49
10 52
10 57
10 60
10 62
10 69
10 81
10 88
10 149
10 152
10 154
10 242
10 257
10 274
10 393
10 474
10 480
10 484
10 495
10 535
10 549
10 610
10 613
10 645
10 666
10 667
10 676
10 704
10 744
10 810
10 823
10 855
10 873
11 13
11 15
11 20
11 21
11 23
11 24
11 26
11 28
11 30
11 31
11 32
11 33
11 36
11 38
11 39
11 40
11 42
11 45
11 50
11 51
11 53
11 57
11 58
11 67
11 70
11 71
11 73
11 75
11 76
11 77
11 78
11 83
11 86
11 91
11 94
11 100
11 101
11 105
11 107
11 108
11 113
11 118
11 129
11 132
11 142
11 143
11 144
11 148
11 149
11 154
11 157
11 163
11 165
11 167
11 168
11 172
11 175
11 176
11 180
11 181
11 184
11 189
11 195
11 196
11 200
11 201
11 215
11 217
11 220
11 223
11 224
11 229
11 231
11 238
11 240
11 245
11 249
11 256
11 262
11 263
11 269
11 272
11 279
11 280
11 299
11 303
11 310
11 317
11 327
11 330
11 358
11 384
11 386
11 459
11 630
11 915
12 13
12 14
12 15
12 16
12 17
12 18
12 19
12 20
12 21
12 24
12 25
12 26
12 27
12 30
12 33
12 36
12 39
12 40
12 43
12 44
12 45
12 46
12 47
12 48
12 51
12 52
12 53
12 54
12 55
12 56
12 57
12 59
12 62
12 64
12 67
12 69
12 72
12 77
12 79
12 80
12 81
12 83
12 85
12 87
12 89
12 96
12 98
12 103
12 119
12 136
12 143
12 155
12 161
12 167
12 172
12 192
12 199
12 209
12 236
12 245
12 257
12 262
12 269
12 285
12 288
12 289
12 305
12 311
12 315
12 318
12 348
12 352
12 438
12 453
12 574
12 883
13 14
13 15
13 16
13 17
13 18
13 19
13 20
13 24
13 30
13 36
13 37
13 38
13 42
13 43
13 47
13 55
13 57
13 64
13 69
13 70
13 76
13 83
13 150
13 164
13 167
13 188
13 262
13 277
13 284
13 291
13 304
13 313
13 355
13 406
13 410
13 413
13 418
13 454
13 460
13 476
13 502
13 503
13 536
13 539
13 548
13 570
13 611
13 627
13 637
13 675
13 758
13 811
14 16
14 17
14 18
14 19
14 20
14 24
14 26
14 31
14 38
14 39
14 40
14 41
14 43
14 44
14 49
14 52
14 62
14 63
14 69
14 70
14 71
14 72
14 81
14 85
14 87
14 89
14 96
14 98
14 99
14 121
14 128
14 133
14 149
14 154
14 173
14 185
14 190
14 203
14 225
14 230
14 252
14 259
14 278
14 294
14 295
14 318
14 320
14 350
14 351
14 352
14 495
14 740
14 741
14 742
14 743
14 744
14 745
14 746
14 747
14 760
14 979
15 16
15 17
15 19
15 20
15 21
15 23
15 24
15 26
15 27
15 28
15 29
15 30
15 31
15 32
15 33
15 36
15 39
15 40
15 42
15 45
15 52
15 53
15 57
15 58
15 61
15 64
15 67
15 68
15 70
15 71
15 73
15 75
15 76
15 77
15 78
15 79
15 83
15 86
15 91
15 94
15 95
15 100
15 101
15 105
15 107
15 108
15 113
15 129
15 132
15 142
15 144
15 145
15 148
15 149
15 150
15 154
15 157
15 158
15 163
15 165
15 167
15 168
15 175
15 176
15 180
15 181
15 184
15 189
15 191
15 195
15 196
15 201
15 205
15 215
15 216
15 223
15 224
15 228
15 229
15 241
15 245
15 253
15 272
15 279
15 291
15 293
15 299
15 303
15 308
15 317
15 324
15 327
15 330
15 348
15 353
15 358
15 417
15 446
16 17
16 18
16 19
16 20
16 21
16 23
16 24
16 30
16 31
16 32
16 34
16 36
16 38
16 39
16 41
16 43
16 47
16 49
16 52
16 55
16 57
16 62
16 64
16 67
16 69
16 70
16 75
16 77
16 81
16 83
16 86
16 91
16 92
16 94
16 101
16 109
16 119
16 129
16 152
16 153
16 154
16 157
16 158
16 165
16 176
16 184
16 189
16 190
16 194
16 202
16 205
16 215
16 223
16 224
16 228
16 232
16 238
16 241
16 249
16 252
16 259
16 262
16 263
16 278
16 294
16 320
16 327
16 335
16 339
16 358
16 380
16 487
16 491
16 575
16 602
16 669
16 670
16 702
16 812
16 841
17 18
17 19
17 20
17 21
17 24
17 26
17 28
17 29
17 32
17 33
17 36
17 41
17 42
17 69
17 220
17 304
17 314
17 326
17 349
17 388
17 412
17 452
17 454
17 464
17 477
17 490
17 497
17 502
17 518
17 562
17 811
17 884
17 962
18 19
18 20
18 21
18 23
18 24
18 26
18 29
18 30
18 33
18 36
18 38
18 41
18 43
18 47
18 49
18 52
18 53
18 55
18 57
18 60
18 62
18 63
18 64
18 66
18 69
18 70
18 72
18 77
18 81
18 83
18 86
18 92
18 101
18 102
18 104
18 105
18 106
18 107
18 108
18 128
18 146
18 151
18 154
18 158
18 163
18 170
18 174
18 181
18 189
18 204
18 216
18 217
18 223
18 224
18 225
18 229
18 231
18 238
18 245
18 248
18 262
18 263
18 268
18 279
18 283
18 299
18 324
18 325
18 326
18 358
18 366
18 426
18 427
18 428
18 432
18 812
19 20
19 21
19 23
19 24
19 26
19 29
19 33
19 38
19 41
19 43
19 47
19 49
19 52
19 55
19 57
19 60
19 63
19 64
19 69
19 70
19 72
19 75
19 76
19 77
19 78
19 80
19 81
19 101
19 106
19 119
19 128
19 130
19 145
19 154
19 155
19 161
19 180
19 181
19 189
19 190
19 202
19 204
19 215
19 216
19 217
19 231
19 239
19 259
19 278
19 295
19 317
19 331
19 332
19 353
19 368
19 399
19 460
19 482
19 488
19 572
19 604
19 821
20 21
20 24
20 27
20 28
20 29
20 33
20 34
20 38
20 43
20 45
20 47
20 52
20 55
20 57
20 64
20 67
20 69
20 70
20 76
20 78
20 79
20 80
20 81
20 94
20 101
20 107
20 108
20 111
20 119
20 126
20 143
20 150
20 154
20 157
20 158
20 167
20 172
20 190
20 194
20 202
20 205
20 225
20 228
20 231
20 232
20 236
20 253
20 257
20 259
20 262
20 278
20 292
20 293
20 294
20 295
20 298
20 317
20 320
20 323
20 324
20 328
20 402
20 403
20 416
20 490
20 491
20 492
20 712
20 713
20 714
20 715
20 969
21 23
21 24
21 25
21 26
21 27
21 28
21 29
21 30
21 31
21 32
21 33
21 36
21 38
21 39
21 41
21 42
21 44
21 45
21 47
21 49
21 53
21 55
21 57
21 58
21 60
21 61
21 62
21 63
21 64
21 66
21 67
21 68
21 70
21 71
21 75
21 76
21 77
21 78
21 79
21 81
21 82
21 83
21 86
21 88
21 89
21 91
21 94
21 95
21 100
21 101
21 104
21 105
21 107
21 108
21 113
21 129
21 130
21 142
21 144
21 145
21 148
21 149
21 150
21 152
21 153
21 154
21 158
21 163
21 165
21 167
21 180
21 181
21 184
21 189
21 191
21 196
21 200
21 201
21 216
21 218
21 220
21 240
21 249
21 268
21 279
21 319
21 324
21 327
21 428
21 506
21 657
21 735
21 736
22 112
22 124
22 530
22 546
22 580
22 835
22 846
23 24
23 26
23 29
23 30
23 31
23 32
23 33
23 36
23 42
23 43
23 108
23 157
23 190
23 202
23 232
23 240
23 280
23 303
23 308
23 332
23 335
23 414
23 490
23 506
23 660
24 27
24 28
24 30
24 31
24 32
24 36
24 38
24 41
24 42
24 44
24 45
24 47
24 53
24 55
24 57
24 58
24 61
24 63
24 64
24 67
24 69
24 70
24 71
24 73
24 75
24 76
24 77
24 78
24 80
24 83
24 86
24 91
24 94
24 95
24 100
24 101
24 104
24 105
24 107
24 108
24 113
24 132
24 142
24 145
24 148
24 149
24 150
24 165
24 180
24 181
24 184
24 189
24 191
24 215
24 216
24 217
24 220
24 238
24 245
24 256
24 279
24 305
24 313
24 367
24 372
24 388
24 397
24 427
24 462
24 476
25 26
25 29
25 31
25 32
25 34
25 41
25 49
25 52
25 54
25 55
25 88
25 127
25 135
25 137
25 138
25 307
25 329
25 356
25 370
25 419
25 420
25 421
25 422
25 440
25 508
25 509
25 510
25 511
25 512
25 781
25 782
25 783
25 784
25 785
25 786
25 787
25 788
25 789
25 790
25 791
25 792
25 793
25 794
25 795
25 796
25 797
25 798
25 799
25 800
25 801
25 802
25 803
25 804
25 805
25 806
25 807
25 808
25 820
25 839
25 845
25 986
26 27
26 28
26 29
26 30
26 31
26 32
26 33
26 38
26 39
26 40
26 41
26 44
26 45
26 48
26 49
26 53
26 57
26 58
26 60
26 62
26 63
26 66
26 67
26 76
26 77
26 78
26 79
26 81
26 88
26 89
26 91
26 101
26 129
26 132
26 148
26 152
26 154
26 157
26 158
26 168
26 175
26 185
26 194
26 204
26 218
26 268
26 305
26 331
26 336
26 365
26 396
26 441
26 566
26 816
27 29
27 32
27 34
27 41
27 42
27 47
27 49
27 53
27 55
27 88
27 106
27 138
27 161
27 174
27 276
27 356
27 370
27 420
27 421
27 422
27 440
27 461
27 508
27 510
27 511
27 512
27 521
27 597
27 598
27 600
27 631
27 726
27 727
27 728
27 730
27 731
27 732
27 781
27 782
27 783
27 784
27 785
27 786
27 787
27 788
27 789
27 790
27 791
27 792
27 793
27 795
27 796
27 798
27 800
27 803
27 804
27 805
27 806
27 807
27 820
27 839
27 921
27 989
28 29
28 30
28 31
28 32
28 33
28 36
28 40
28 49
28 51
28 52
28 61
28 66
28 68
28 70
28 71
28 73
28 75
28 77
28 78
28 81
28 82
28 83
28 86
28 88
28 100
28 101
28 105
28 107
28 108
28 112
28 113
28 118
28 119
28 121
28 126
28 142
28 143
28 146
28 149
28 154
28 157
28 158
28 163
28 165
28 169
28 172
28 176
28 180
28 181
28 182
28 185
28 189
28 191
28 193
28 194
28 195
28 196
28 203
28 209
28 214
28 216
28 225
28 229
28 245
28 249
28 262
28 268
28 272
28 305
28 310
28 333
28 350
28 364
28 402
28 434
28 449
29 30
29 31
29 32
29 33
29 34
29 37
29 38
29 39
29 40
29 41
29 43
29 44
29 45
29 47
29 49
29 52
29 53
29 55
29 57
29 58
29 60
29 62
29 63
29 67
29 68
29 71
29 76
29 77
29 78
29 79
29 81
29 84
29 89
29 101
29 103
29 119
29 132
29 134
29 154
29 157
29 158
29 168
29 194
29 199
29 204
29 210
29 219
29 269
29 285
29 289
29 321
29 405
29 514
29 528
30 31
30 32
30 33
30 36
30 40
30 41
30 42
30 45
30 47
30 49
30 51
30 52
30 55
30 62
30 66
30 67
30 69
30 72
30 86
30 88
30 95
30 106
30 108
30 122
30 126
30 134
30 136
30 142
30 143
30 147
30 148
30 154
30 155
30 159
30 161
30 175
30 181
30 185
30 187
30 193
30 204
30 225
30 232
30 240
30 252
30 256
30 261
30 288
30 295
30 302
30 360
30 376
30 436
30 448
30 533
30 582
31 32
31 33
31 36
31 38
31 39
31 40
31 44
31 45
31 51
31 52
31 55
31 57
31 58
31 61
31 64
31 66
31 67
31 70
31 71
31 76
31 77
31 78
31 79
31 83
31 100
31 101
31 105
31 126
31 129
31 142
31 148
31 149
31 154
31 157
31 158
31 168
31 175
31 176
31 180
31 189
31 194
31 195
31 196
31 216
31 218
31 229
31 231
31 240
31 256
31 263
31 268
31 272
31 310
31 336
31 613
32 33
32 36
32 40
32 41
32 42
32 44
32 47
32 48
32 51
32 52
32 55
32 57
32 60
32 64
32 66
32 68
32 70
32 71
32 73
32 77
32 80
32 81
32 82
32 86
32 88
32 105
32 107
32 113
32 119
32 126
32 128
32 129
32 131
32 143
32 146
32 157
32 175
32 181
32 186
32 194
32 203
32 209
32 299
32 302
32 360
32 377
32 436
32 535
33 34
33 37
33 38
33 40
33 41
33 45
33 49
33 52
33 53
33 57
33 58
33 60
33 62
33 63
33 64
33 69
33 76
33 77
33 78
33 79
33 81
33 84
33 88
33 89
33 101
33 134
33 154
33 158
33 167
33 168
33 209
33 210
33 218
33 219
33 268
33 269
33 285
33 289
33 438
34 41
34 45
34 46
34 54
34 55
34 88
34 89
34 103
34 115
34 127
34 155
34 198
34 199
34 204
34 288
34 289
34 329
34 368
34 439
34 526
34 527
34 528
34 848
34 851
34 994
34 995
35 112
35 115
35 118
35 131
35 193
35 230
35 234
35 267
35 302
35 322
35 346
35 405
35 411
35 465
35 486
35 542
35 746
35 866
35 987
36 38
36 42
36 45
36 51
36 57
36 58
36 61
36 63
36 64
36 67
36 70
36 71
36 75
36 76
36 77
36 78
36 83
36 91
36 94
36 100
36 101
36 105
36 108
36 113
36 129
36 142
36 148
36 149
36 150
36 158
36 163
36 165
36 180
36 189
36 195
36 201
36 215
36 216
36 229
36 249
36 256
36 272
36 279
36 333
36 402
36 850
37 41
37 46
37 54
37 63
37 65
37 69
37 155
37 276
37 285
37 289
37 321
37 407
37 419
37 439
37 481
37 496
37 501
37 504
38 40
38 41
38 42
38 43
38 47
38 52
38 55
38 61
38 66
38 69
38 76
38 107
38 151
38 154
38 158
38 229
38 313
38 314
38 387
38 477
39 40
39 47
39 49
39 52
39 55
39 66
39 69
39 118
39 277
39 362
39 692
39 759
40 44
40 48
40 53
40 58
40 60
40 63
40 71
40 76
40 78
40 79
40 82
40 88
40 91
40 101
40 132
40 157
40 168
40 175
40 185
40 204
40 218
40 269
40 365
40 396
40 699
41 43
41 44
41 45
41 47
41 49
41 54
41 58
41 60
41 63
41 65
41 69
41 71
41 76
41 78
41 79
41 81
41 88
41 89
41 101
41 106
41 119
41 126
41 129
41 134
41 148
41 149
41 180
41 189
41 210
41 216
41 218
41 219
41 275
41 276
41 443
41 448
42 45
42 53
42 57
42 58
42 61
42 64
42 67
42 70
42 73
42 76
42 78
42 83
42 86
42 91
42 94
42 101
42 105
42 113
42 142
42 144
42 148
42 150
42 163
42 165
42 167
42 175
42 180
42 181
42 189
42 196
42 211
42 216
42 217
42 245
42 249
42 327
42 330
42 361
43 47
43 52
43 53
43 55
43 57
43 69
43 70
43 72
43 76
43 78
43 81
43 83
43 97
43 101
43 104
43 106
43 119
43 160
43 167
43 189
43 207
43 219
43 261
43 275
43 293
43 298
43 348
43 366
43 387
43 391
43 426
43 507
43 612
43 650
44 47
44 49
44 55
44 57
44 66
44 69
44 82
44 87
44 88
44 121
44 133
44 148
44 213
44 404
44 451
44 580
44 639
44 663
45 47
45 49
45 53
45 54
45 60
45 63
45 78
45 108
45 154
45 198
45 210
45 219
45 261
45 276
45 285
45 287
45 288
45 289
45 438
45 514
46 63
46 65
46 136
46 271
46 325
46 468
46 540
46 568
46 603
46 614
46 615
47 49
47 55
47 57
47 60
47 61
47 62
47 63
47 64
47 70
47 72
47 75
47 81
47 101
47 111
47 126
47 130
47 151
47 154
47 189
47 201
47 207
47 298
47 355
47 376
47 507
48 88
48 499
48 882
49 55
49 58
49 60
49 63
49 66
49 69
49 71
49 78
49 79
49 81
49 101
49 126
49 218
49 263
49 336
49 430
50 95
50 120
50 227
50 337
50 380
50 386
50 672
51 53
51 58
51 71
51 76
51 77
51 78
51 86
51 129
51 142
51 148
51 149
51 154
51 172
51 176
51 180
51 195
51 196
51 217
51 229
51 231
51 240
51 272
51 312
51 333
51 339
51 428
52 60
52 63
52 69
52 71
52 79
52 82
52 84
52 89
52 91
52 101
52 109
52 131
52 139
52 168
52 175
52 178
52 218
52 222
53 54
53 55
53 81
53 88
53 307
53 356
53 422
53 510
53 511
53 512
53 726
53 727
53 728
53 729
53 730
53 731
53 732
53 733
53 797
53 974
53 975
53 976
53 977
54 370
54 457
54 509
54 552
54 592
54 597
54 652
54 794
54 799
54 801
54 802
54 845
54 874
55 57
55 58
55 60
55 62
55 63
55 64
55 66
55 67
55 69
55 70
55 71
55 78
55 81
55 83
55 86
55 90
55 101
55 104
55 105
55 119
55 126
55 128
55 177
55 183
55 189
55 207
55 216
55 220
55 250
55 298
55 507
55 780
56 605
56 743
57 66
57 735
57 736
58 66
58 69
58 88
58 126
58 132
58 441
58 531
59 203
59 258
59 344
59 349
59 378
59 381
59 415
59 455
59 456
59 563
59 564
59 565
59 594
59 664
59 718
59 719
59 720
59 721
59 737
59 738
59 739
59 961
60 69
60 88
60 103
60 134
60 199
60 438
60 773
61 157
61 260
61 312
61 413
61 637
61 775
61 938
62 69
62 162
62 331
62 430
62 471
62 629
63 77
63 88
63 106
63 117
63 154
63 161
63 206
63 219
63 275
63 368
63 493
63 526
64 113
64 217
64 454
64 536
64 537
64 581
64 583
65 103
65 540
65 603
65 628
65 661
65 838
65 881
65 913
65 949
66 71
66 78
66 79
66 91
66 101
66 126
66 148
66 157
66 218
66 263
66 268
66 331
66 336
66 531
67 286
67 367
67 604
67 695
67 777
67 923
68 69
68 853
68 999
69 79
69 105
69 114
69 132
69 157
69 283
69 302
69 346
70 271
70 314
70 476
70 477
70 500
70 675
70 818
71 293
71 398
71 471
72 174
72 177
72 203
72 313
72 344
72 378
72 381
72 389
72 390
72 415
72 473
72 601
72 723
73 80
73 95
73 108
73 377
73 505
73 595
73 596
73 651
74 111
74 183
74 207
74 250
74 270
74 290
74 304
74 340
74 371
74 381
74 415
74 564
74 601
75 311
75 584
76 291
76 292
76 462
76 611
76 657
77 211
77 323
77 326
77 412
77 413
77 414
77 505
77 775
77 776
77 777
77 778
78 88
78 91
78 121
78 182
78 257
78 282
78 283
78 295
78 319
78 400
78 917
79 88
79 118
79 274
80 377
80 505
80 595
80 596
80 651
80 890
81 116
81 119
81 161
81 254
81 359
81 587
82 84
82 109
82 139
82 147
82 150
82 159
82 169
82 178
82 208
82 222
82 301
82 342
84 109
84 134
84 139
84 431
84 690
85 133
85 234
85 255
85 640
85 642
86 104
86 314
86 618
87 296
87 297
87 346
87 360
87 905
88 101
88 121
88 132
88 159
88 186
88 218
89 134
89 271
89 285
89 514
89 773
90 203
90 258
90 301
90 304
90 349
90 737
90 738
90 739
91 103
91 121
91 126
91 131
91 134
91 181
91 232
91 283
91 425
92 450
92 577
92 655
93 515
93 825
93 898
94 172
94 310
94 312
94 335
94 394
94 714
95 120
95 227
95 672
95 904
96 98
96 204
96 433
97 177
97 203
97 233
97 258
97 313
97 390
97 455
97 456
97 513
98 429
98 433
98 474
99 429
99 474
99 665
99 666
99 950
100 460
100 716
100 879
101 132
101 707
101 877
102 450
102 577
102 578
102 579
102 635
102 659
102 908
102 970
103 115
103 325
103 357
103 504
103 606
104 109
104 936
105 627
105 852
106 122
106 221
106 374
106 375
106 544
106 545
106 626
106 887
106 888
106 919
106 935
107 338
107 591
107 643
107 841
107 891
107 907
108 174
108 301
108 398
109 145
109 150
109 222
109 227
109 265
109 338
110 442
110 854
110 855
111 125
111 183
111 304
111 340
111 371
111 616
112 277
112 683
112 686
112 688
113 524
113 772
114 214
114 840
115 271
115 467
115 468
115 501
115 614
115 615
115 625
115 927
116 300
116 359
116 519
116 693
117 260
117 475
117 489
117 673
117 674
117 965
118 667
119 300
119 587
120 211
120 337
120 459
121 132
121 148
121 175
121 193
121 214
121 252
121 343
122 221
122 374
122 443
123 126
123 132
123 379
123 585
123 928
123 973
124 178
124 203
124 383
124 423
125 183
125 340
125 656
125 725
126 235
126 243
126 334
126 369
126 379
127 293
127 307
127 509
127 592
128 344
128 378
128 455
128 456
128 563
128 594
129 215
129 312
129 525
130 463
130 464
130 623
132 148
132 152
132 159
132 163
132 189
132 196
132 225
132 237
133 639
133 640
133 641
133 642
133 663
133 940
135 461
135 551
135 552
135 553
135 554
135 555
135 556
135 561
135 621
135 652
135 910
135 929
136 325
136 407
136 467
136 527
136 576
137 156
137 356
137 370
137 420
137 421
137 440
137 457
137 508
137 589
137 598
137 600
137 624
137 631
137 819
137 918
138 551
138 553
138 554
138 555
138 556
138 561
138 621
138 624
138 729
139 147
139 178
139 247
139 449
140 822
140 823
140 824
140 825
140 826
141 329
141 475
141 520
141 632
141 633
142 713
143 310
143 619
144 164
144 668
144 669
144 670
144 671
144 772
144 856
144 951
145 338
145 932
145 933
145 939
146 340
146 470
146 828
146 844
146 942
147 475
147 520
147 532
147 588
147 674
147 827
147 871
147 895
147 912
149 333
149 518
149 829
149 914
150 397
150 937
151 541
151 644
151 698
151 885
153 463
153 623
153 774
153 875
153 876
155 221
155 375
155 466
156 265
156 356
156 370
156 420
156 421
156 440
156 457
157 288
159 186
159 529
160 165
160 653
160 654
160 655
160 779
160 947
161 493
162 430
162 516
162 816
162 817
162 988
163 239
163 317
163 680
163 843
164 537
164 558
164 581
164 863
164 922
164 953
164 985
166 167
166 260
166 281
166 489
166 532
166 588
166 978
167 174
167 211
167 359
168 390
169 840
170 212
170 557
170 857
170 858
170 859
170 867
170 878
170 902
170 920
170 963
170 992
171 339
171 384
172 394
172 559
172 619
172 634
173 362
173 826
174 268
174 279
174 297
174 538
176 559
176 872
177 390
177 473
178 222
178 423
178 809
179 273
179 543
181 458
182 204
182 437
183 371
183 616
183 833
184 482
184 539
184 821
184 993
185 676
185 677
186 444
186 894
187 383
187 470
188 567
188 869
188 900
188 903
188 909
188 955
190 194
190 259
190 263
190 278
190 294
190 320
191 314
191 638
191 697
192 374
193 529
194 259
194 278
194 294
195 231
195 634
196 650
197 489
197 632
197 673
197 691
197 734
197 924
197 925
198 419
198 733
199 255
199 321
200 284
200 330
200 749
200 980
200 981
200 990
200 996
201 695
201 776
201 778
202 231
202 259
202 399
203 233
204 252
205 308
205 591
206 306
206 375
206 443
207 445
207 547
207 593
207 765
208 222
208 718
208 719
208 720
208 721
208 722
208 723
208 972
209 247
209 404
209 724
210 382
211 220
211 850
212 557
213 750
213 762
213 945
213 946
214 599
215 748
216 487
219 234
221 306
222 270
222 345
223 679
224 716
226 408
226 517
226 646
226 685
227 386
227 889
228 911
229 333
230 465
232 568
233 473
233 664
234 297
235 529
235 849
235 997
237 469
238 299
239 678
239 679
239 680
240 712
242 649
243 546
243 684
243 751
244 357
244 425
246 353
246 405
247 404
247 724
248 520
248 521
248 827
250 290
250 445
250 547
251 343
251 442
251 560
251 575
251 586
251 880
253 636
254 300
254 864
255 288
257 283
258 964
261 868
264 300
264 693
265 431
265 522
266 342
266 452
266 453
266 523
266 620
270 656
270 844
273 648
273 649
273 814
273 944
281 691
284 330
286 842
287 541
287 644
290 445
290 593
291 697
297 538
298 780
301 722
309 550
311 533
316 934
317 403
318 352
319 398
322 347
325 576
328 416
334 550
341 472
341 571
348 865
350 582
350 658
351 605
351 622
351 943
355 567
359 819
361 394
361 694
364 585
367 842
369 954
372 416
373 401
384 583
385 560
385 586
389 862
389 948
392 470
393 607
394 694
395 689
407 662
409 472
424 513
424 565
439 628
480 926
491 897
494 534
496 860
522 848
524 952
622 742
661 662
